10
2-butyne molecule
C       0.000000000000000      0.000000000000000      2.071955000000000
C       0.000000000000000      0.000000000000000      0.609970000000000
C       0.000000000000000      0.000000000000000     -0.609970000000000
C       0.000000000000000      0.000000000000000     -2.071955000000000
H       0.000000000000000      1.020696000000000      2.464562000000000
H      -0.883949000000000     -0.510348000000000      2.464562000000000
H       0.883949000000000     -0.510348000000000      2.464562000000000
H       0.000000000000000      1.020696000000000     -2.464562000000000
H       0.883949000000000     -0.510348000000000     -2.464562000000000
H      -0.883949000000000     -0.510348000000000     -2.464562000000000
