10
bicyclobutane molecule
C       0.000000000000000      1.131343000000000      0.310424000000000
C       0.000000000000000     -1.131343000000000      0.310424000000000
C       0.747952000000000      0.000000000000000     -0.311812000000000
C      -0.747952000000000      0.000000000000000     -0.311812000000000
H       0.000000000000000      1.237033000000000      1.397617000000000
H       0.000000000000000      2.077375000000000     -0.227668000000000
H       0.000000000000000     -1.237033000000000      1.397617000000000
H       0.000000000000000     -2.077375000000000     -0.227668000000000
H       1.414410000000000      0.000000000000000     -1.161626000000000
H      -1.414410000000000      0.000000000000000     -1.161626000000000
