10
butadiene molecule
C       0.605711000000000      1.746550000000000      0.000000000000000
C       0.605711000000000      0.404083000000000      0.000000000000000
C      -0.605711000000000     -0.404083000000000      0.000000000000000
C      -0.605711000000000     -1.746550000000000      0.000000000000000
H       1.527617000000000      2.317443000000000      0.000000000000000
H      -0.321132000000000      2.313116000000000      0.000000000000000
H       1.553503000000000     -0.133640000000000      0.000000000000000
H      -1.553503000000000      0.133640000000000      0.000000000000000
H       0.321132000000000     -2.313116000000000      0.000000000000000
H      -1.527617000000000     -2.317443000000000      0.000000000000000
