7
C2H5 molecule
C      -0.014359000000000     -0.694617000000000      0.000000000000000
C      -0.014359000000000      0.794473000000000      0.000000000000000
H       1.006101000000000     -1.104042000000000      0.000000000000000
H      -0.517037000000000     -1.093613000000000      0.884839000000000
H      -0.517037000000000     -1.093613000000000     -0.884839000000000
H       0.100137000000000      1.346065000000000      0.923705000000000
H       0.100137000000000      1.346065000000000     -0.923705000000000
