10
C2H6NH molecule
C      -0.027530000000000     -0.224702000000000      1.204880000000000
N      -0.027530000000000      0.592470000000000      0.000000000000000
C      -0.027530000000000     -0.224702000000000     -1.204880000000000
H       0.791501000000000     -0.962742000000000      1.248506000000000
H       0.039598000000000      0.421182000000000      2.083405000000000
H      -0.972220000000000     -0.772987000000000      1.261750000000000
H       0.805303000000000      1.178220000000000      0.000000000000000
H       0.791501000000000     -0.962742000000000     -1.248506000000000
H       0.039598000000000      0.421182000000000     -2.083405000000000
H      -0.972220000000000     -0.772987000000000     -1.261750000000000
