12
C2H6CHOH molecule
O       0.027191000000000      1.363691000000000     -0.167516000000000
C      -0.000926000000000      0.036459000000000      0.370128000000000
H       0.859465000000000      1.775647000000000      0.121307000000000
H       0.007371000000000      0.082145000000000      1.470506000000000
C      -1.313275000000000     -0.563514000000000     -0.088979000000000
C       1.200721000000000     -0.764480000000000     -0.104920000000000
H      -1.334005000000000     -0.607253000000000     -1.181009000000000
H       1.202843000000000     -0.807817000000000     -1.197189000000000
H      -2.147812000000000      0.054993000000000      0.247676000000000
H       2.136462000000000     -0.299324000000000      0.223164000000000
H      -1.438709000000000     -1.574275000000000      0.308340000000000
H       1.177736000000000     -1.784436000000000      0.289967000000000
