7
C3H4_C2v molecule
C       0.000000000000000      0.000000000000000      0.858299000000000
C       0.000000000000000     -0.650545000000000     -0.498802000000000
C       0.000000000000000      0.650545000000000     -0.498802000000000
H       0.912438000000000      0.000000000000000      1.456387000000000
H      -0.912438000000000      0.000000000000000      1.456387000000000
H       0.000000000000000     -1.584098000000000     -1.038469000000000
H       0.000000000000000      1.584098000000000     -1.038469000000000
