7
C3H4_C3v molecule
C       0.000000000000000      0.000000000000000      0.214947000000000
C       0.000000000000000      0.000000000000000      1.433130000000000
C       0.000000000000000      0.000000000000000     -1.246476000000000
H       0.000000000000000      0.000000000000000      2.498887000000000
H       0.000000000000000      1.021145000000000     -1.636167000000000
H       0.884337000000000     -0.510572000000000     -1.636167000000000
H      -0.884337000000000     -0.510572000000000     -1.636167000000000
