9
C3H6_D3h molecule
C       0.000000000000000      0.866998000000000      0.000000000000000
C       0.750842000000000     -0.433499000000000      0.000000000000000
C      -0.750842000000000     -0.433499000000000      0.000000000000000
H       0.000000000000000      1.455762000000000      0.910526000000000
H       0.000000000000000      1.455762000000000     -0.910526000000000
H       1.260727000000000     -0.727881000000000     -0.910526000000000
H       1.260727000000000     -0.727881000000000      0.910526000000000
H      -1.260727000000000     -0.727881000000000      0.910526000000000
H      -1.260727000000000     -0.727881000000000     -0.910526000000000
