9
C3H6_Cs molecule
C       1.291290000000000      0.133682000000000      0.000000000000000
C       0.000000000000000      0.479159000000000      0.000000000000000
H       1.601160000000000     -0.907420000000000      0.000000000000000
H       2.080800000000000      0.877337000000000      0.000000000000000
H      -0.263221000000000      1.536098000000000      0.000000000000000
C      -1.139757000000000     -0.492341000000000      0.000000000000000
H      -0.776859000000000     -1.523291000000000      0.000000000000000
H      -1.775540000000000     -0.352861000000000      0.880420000000000
H      -1.775540000000000     -0.352861000000000     -0.880420000000000
