10
C3H7 molecule
C       0.014223000000000      0.543850000000000      0.000000000000000
C       0.014223000000000     -0.199742000000000      1.291572000000000
C       0.014223000000000     -0.199742000000000     -1.291572000000000
H      -0.322890000000000      1.575329000000000      0.000000000000000
H       0.221417000000000      0.459174000000000      2.138477000000000
H       0.221417000000000      0.459174000000000     -2.138477000000000
H      -0.955157000000000     -0.684629000000000      1.484633000000000
H       0.767181000000000     -0.995308000000000      1.286239000000000
H       0.767181000000000     -0.995308000000000     -1.286239000000000
H      -0.955157000000000     -0.684629000000000     -1.484633000000000
