11
C3H8 molecule
C       0.000000000000000      0.000000000000000      0.587716000000000
C       0.000000000000000      1.266857000000000     -0.260186000000000
C       0.000000000000000     -1.266857000000000     -0.260186000000000
H      -0.876898000000000      0.000000000000000      1.244713000000000
H       0.876898000000000      0.000000000000000      1.244713000000000
H       0.000000000000000      2.166150000000000      0.362066000000000
H       0.000000000000000     -2.166150000000000      0.362066000000000
H       0.883619000000000      1.304234000000000     -0.904405000000000
H      -0.883619000000000      1.304234000000000     -0.904405000000000
H      -0.883619000000000     -1.304234000000000     -0.904405000000000
H       0.883619000000000     -1.304234000000000     -0.904405000000000
