13
C3H9C molecule
C       0.000000000000000      0.000000000000000      0.191929000000000
C       0.000000000000000      1.478187000000000     -0.020866000000000
C       1.280147000000000     -0.739093000000000     -0.020866000000000
C      -1.280147000000000     -0.739093000000000     -0.020866000000000
H       0.000000000000000      1.731496000000000     -1.093792000000000
H      -0.887043000000000      1.945769000000000      0.417565000000000
H       0.887043000000000      1.945769000000000      0.417565000000000
H       1.499520000000000     -0.865748000000000     -1.093792000000000
H       2.128607000000000     -0.204683000000000      0.417565000000000
H       1.241564000000000     -1.741086000000000      0.417565000000000
H      -1.499520000000000     -0.865748000000000     -1.093792000000000
H      -1.241564000000000     -1.741086000000000      0.417565000000000
H      -2.128607000000000     -0.204683000000000      0.417565000000000
