10
C4H4NH molecule
H       0.000000000000000      0.000000000000000      2.129296000000000
N       0.000000000000000      0.000000000000000      1.118684000000000
C       0.000000000000000      1.124516000000000      0.333565000000000
C       0.000000000000000     -1.124516000000000      0.333565000000000
C       0.000000000000000      0.708407000000000     -0.983807000000000
C       0.000000000000000     -0.708407000000000     -0.983807000000000
H       0.000000000000000      2.112872000000000      0.770496000000000
H       0.000000000000000     -2.112872000000000      0.770496000000000
H       0.000000000000000      1.357252000000000     -1.849085000000000
H       0.000000000000000     -1.357252000000000     -1.849085000000000
