9
C4H4S molecule
S       0.000000000000000      0.000000000000000      1.189753000000000
C       0.000000000000000      1.233876000000000     -0.001474000000000
C       0.000000000000000     -1.233876000000000     -0.001474000000000
C       0.000000000000000      0.709173000000000     -1.272322000000000
C       0.000000000000000     -0.709173000000000     -1.272322000000000
H       0.000000000000000      2.275343000000000      0.291984000000000
H       0.000000000000000     -2.275343000000000      0.291984000000000
H       0.000000000000000      1.321934000000000     -2.167231000000000
H       0.000000000000000     -1.321934000000000     -2.167231000000000
