9
C4H4O molecule
O       0.000000000000000      0.000000000000000      1.163339000000000
C       0.000000000000000      1.094700000000000      0.348039000000000
C       0.000000000000000     -1.094700000000000      0.348039000000000
C       0.000000000000000      0.713200000000000     -0.962161000000000
C       0.000000000000000     -0.713200000000000     -0.962161000000000
H       0.000000000000000      2.049359000000000      0.851113000000000
H       0.000000000000000     -2.049359000000000      0.851113000000000
H       0.000000000000000      1.370828000000000     -1.819738000000000
H       0.000000000000000     -1.370828000000000     -1.819738000000000
