11
C5H5N molecule
N       0.000000000000000      0.000000000000000      1.424672000000000
C       0.000000000000000      0.000000000000000     -1.386178000000000
C       0.000000000000000      1.144277000000000      0.720306000000000
C       0.000000000000000     -1.144277000000000      0.720306000000000
C       0.000000000000000     -1.196404000000000     -0.672917000000000
C       0.000000000000000      1.196404000000000     -0.672917000000000
H       0.000000000000000      0.000000000000000     -2.473052000000000
H       0.000000000000000      2.060723000000000      1.307477000000000
H       0.000000000000000     -2.060723000000000      1.307477000000000
H       0.000000000000000     -2.155293000000000     -1.183103000000000
H       0.000000000000000      2.155293000000000     -1.183103000000000
