13
C5H8 molecule
C       0.000000000000000      0.000000000000000      0.000000000000000
C       0.000000000000000      0.762014000000000      1.265752000000000
C       0.000000000000000     -0.762014000000000      1.265752000000000
C       0.762014000000000      0.000000000000000     -1.265752000000000
C      -0.762014000000000      0.000000000000000     -1.265752000000000
H      -0.914023000000000      1.265075000000000      1.568090000000000
H       0.914023000000000      1.265075000000000      1.568090000000000
H      -0.914023000000000     -1.265075000000000      1.568090000000000
H       0.914023000000000     -1.265075000000000      1.568090000000000
H       1.265075000000000     -0.914023000000000     -1.568090000000000
H       1.265075000000000      0.914023000000000     -1.568090000000000
H      -1.265075000000000     -0.914023000000000     -1.568090000000000
H      -1.265075000000000      0.914023000000000     -1.568090000000000
