8
CH2NHCH2 molecule
C      -0.038450000000000     -0.397326000000000      0.739421000000000
N      -0.038450000000000      0.875189000000000      0.000000000000000
C      -0.038450000000000     -0.397326000000000     -0.739421000000000
H       0.903052000000000      1.268239000000000      0.000000000000000
H      -0.955661000000000     -0.604926000000000      1.280047000000000
H      -0.955661000000000     -0.604926000000000     -1.280047000000000
H       0.869409000000000     -0.708399000000000      1.249033000000000
H       0.869409000000000     -0.708399000000000     -1.249033000000000
