7
CH2OCH2 molecule
C       0.000000000000000      0.731580000000000     -0.375674000000000
O       0.000000000000000      0.000000000000000      0.860950000000000
C       0.000000000000000     -0.731580000000000     -0.375674000000000
H       0.919568000000000      1.268821000000000     -0.594878000000000
H      -0.919568000000000      1.268821000000000     -0.594878000000000
H      -0.919568000000000     -1.268821000000000     -0.594878000000000
H       0.919568000000000     -1.268821000000000     -0.594878000000000
