7
CH2SCH2 molecule
C       0.000000000000000     -0.739719000000000     -0.792334000000000
S       0.000000000000000      0.000000000000000      0.863474000000000
C       0.000000000000000      0.739719000000000     -0.792334000000000
H      -0.913940000000000     -1.250142000000000     -1.076894000000000
H       0.913940000000000     -1.250142000000000     -1.076894000000000
H       0.913940000000000      1.250142000000000     -1.076894000000000
H      -0.913940000000000      1.250142000000000     -1.076894000000000
