10
CH3COCH3 molecule
O       0.000000000000000      0.000000000000000      1.405591000000000
C       0.000000000000000      0.000000000000000      0.179060000000000
C       0.000000000000000      1.285490000000000     -0.616342000000000
C       0.000000000000000     -1.285490000000000     -0.616342000000000
H       0.000000000000000      2.134917000000000      0.066535000000000
H       0.000000000000000     -2.134917000000000      0.066535000000000
H      -0.881086000000000      1.331548000000000     -1.264013000000000
H       0.881086000000000      1.331548000000000     -1.264013000000000
H       0.881086000000000     -1.331548000000000     -1.264013000000000
H      -0.881086000000000     -1.331548000000000     -1.264013000000000
