7
CH3COCl molecule
C       0.000000000000000      0.523878000000000      0.000000000000000
C       1.486075000000000      0.716377000000000      0.000000000000000
Cl     -0.452286000000000     -1.217999000000000      0.000000000000000
O      -0.845539000000000      1.374940000000000      0.000000000000000
H       1.701027000000000      1.784793000000000      0.000000000000000
H       1.917847000000000      0.240067000000000      0.882679000000000
H       1.917847000000000      0.240067000000000     -0.882679000000000
