9
CH3CH2OH molecule
C       1.168181000000000     -0.400382000000000      0.000000000000000
C       0.000000000000000      0.559462000000000      0.000000000000000
O      -1.190083000000000     -0.227669000000000      0.000000000000000
H      -1.946623000000000      0.381525000000000      0.000000000000000
H       0.042557000000000      1.207508000000000      0.886933000000000
H       0.042557000000000      1.207508000000000     -0.886933000000000
H       2.115891000000000      0.144800000000000      0.000000000000000
H       1.128599000000000     -1.037234000000000      0.885881000000000
H       1.128599000000000     -1.037234000000000     -0.885881000000000
