9
CH3CONH2 molecule
O       0.424546000000000      1.327024000000000      0.008034000000000
C       0.077158000000000      0.149789000000000     -0.004249000000000
N       0.985518000000000     -0.878537000000000     -0.048910000000000
C      -1.371475000000000     -0.288665000000000     -0.000144000000000
H       0.707952000000000     -1.824249000000000      0.169942000000000
H      -1.997229000000000      0.584922000000000     -0.175477000000000
H      -1.560842000000000     -1.039270000000000     -0.771686000000000
H      -1.632113000000000     -0.723007000000000      0.969814000000000
H       1.953133000000000     -0.631574000000000      0.111866000000000
