9
CH3CH2SH molecule
C       1.514343000000000      0.679412000000000      0.000000000000000
C       0.000000000000000      0.826412000000000      0.000000000000000
S      -0.756068000000000     -0.831284000000000      0.000000000000000
H      -2.035346000000000     -0.427738000000000      0.000000000000000
H      -0.324970000000000      1.376482000000000      0.885793000000000
H      -0.324970000000000      1.376482000000000     -0.885793000000000
H       1.986503000000000      1.665082000000000      0.000000000000000
H       1.854904000000000      0.137645000000000      0.885494000000000
H       1.854904000000000      0.137645000000000     -0.885494000000000
