8
CH3CH2O molecule
C       1.004757000000000     -0.568263000000000      0.000000000000000
C       0.000000000000000      0.588691000000000      0.000000000000000
O      -1.260062000000000      0.000729000000000      0.000000000000000
H       0.146956000000000      1.204681000000000      0.896529000000000
H       0.146956000000000      1.204681000000000     -0.896529000000000
H       2.019363000000000     -0.164100000000000      0.000000000000000
H       0.869340000000000     -1.186832000000000      0.888071000000000
H       0.869340000000000     -1.186832000000000     -0.888071000000000
