9
CH3OCH3 molecule
C       0.000000000000000      1.165725000000000     -0.199950000000000
O       0.000000000000000      0.000000000000000      0.600110000000000
C       0.000000000000000     -1.165725000000000     -0.199950000000000
H       0.000000000000000      2.017769000000000      0.480203000000000
H       0.891784000000000      1.214320000000000     -0.840474000000000
H      -0.891784000000000      1.214320000000000     -0.840474000000000
H       0.000000000000000     -2.017769000000000      0.480203000000000
H      -0.891784000000000     -1.214320000000000     -0.840474000000000
H       0.891784000000000     -1.214320000000000     -0.840474000000000
