7
CH3ONO molecule
C      -1.316208000000000      0.309247000000000      0.000000000000000
O       0.000000000000000      0.896852000000000      0.000000000000000
H      -1.985538000000000      1.166013000000000      0.000000000000000
H      -1.464336000000000     -0.304637000000000      0.890672000000000
H      -1.464336000000000     -0.304637000000000     -0.890672000000000
N       1.045334000000000     -0.022815000000000      0.000000000000000
O       0.686764000000000     -1.178416000000000      0.000000000000000
