7
H2CCHCN molecule
C      -0.161594000000000     -1.638625000000000      0.000000000000000
C       0.584957000000000     -0.524961000000000      0.000000000000000
C       0.000000000000000      0.782253000000000      0.000000000000000
H      -1.245203000000000     -1.598169000000000      0.000000000000000
H       0.305973000000000     -2.616405000000000      0.000000000000000
H       1.669863000000000     -0.572107000000000      0.000000000000000
N      -0.467259000000000      1.867811000000000      0.000000000000000
