7
H3CNH2 molecule
C       0.051736000000000      0.704422000000000      0.000000000000000
N       0.051736000000000     -0.759616000000000      0.000000000000000
H      -0.941735000000000      1.176192000000000      0.000000000000000
H      -0.458181000000000     -1.099433000000000      0.812370000000000
H      -0.458181000000000     -1.099433000000000     -0.812370000000000
H       0.592763000000000      1.056727000000000      0.880670000000000
H       0.592763000000000      1.056727000000000     -0.880670000000000
