12
isobutene molecule
C       0.000000000000000      0.000000000000000      1.458807000000000
C       0.000000000000000      0.000000000000000      0.119588000000000
H       0.000000000000000      0.924302000000000      2.028409000000000
H       0.000000000000000     -0.924302000000000      2.028409000000000
C       0.000000000000000      1.272683000000000     -0.678803000000000
H       0.000000000000000      2.153042000000000     -0.031588000000000
H       0.880211000000000      1.323542000000000     -1.329592000000000
H      -0.880211000000000      1.323542000000000     -1.329592000000000
C       0.000000000000000     -1.272683000000000     -0.678803000000000
H       0.000000000000000     -2.153042000000000     -0.031588000000000
H      -0.880211000000000     -1.323542000000000     -1.329592000000000
H       0.880211000000000     -1.323542000000000     -1.329592000000000
