10
methylenecyclopropane molecule
C       0.000000000000000      0.000000000000000      0.315026000000000
C       0.000000000000000     -0.767920000000000     -0.932032000000000
C       0.000000000000000      0.767920000000000     -0.932032000000000
C       0.000000000000000      0.000000000000000      1.640027000000000
H      -0.912794000000000     -1.271789000000000     -1.239303000000000
H       0.912794000000000     -1.271789000000000     -1.239303000000000
H       0.912794000000000      1.271789000000000     -1.239303000000000
H      -0.912794000000000      1.271789000000000     -1.239303000000000
H       0.000000000000000     -0.926908000000000      2.205640000000000
H       0.000000000000000      0.926908000000000      2.205640000000000
