14
trans-butane molecule
C       0.702581000000000      1.820873000000000      0.000000000000000
C       0.702581000000000      0.296325000000000      0.000000000000000
C      -0.702581000000000     -0.296325000000000      0.000000000000000
C      -0.702581000000000     -1.820873000000000      0.000000000000000
H       1.719809000000000      2.222340000000000      0.000000000000000
H      -1.719809000000000     -2.222340000000000      0.000000000000000
H       0.188154000000000      2.210362000000000      0.883614000000000
H       0.188154000000000      2.210362000000000     -0.883614000000000
H      -0.188154000000000     -2.210362000000000      0.883614000000000
H      -0.188154000000000     -2.210362000000000     -0.883614000000000
H       1.247707000000000     -0.072660000000000     -0.877569000000000
H       1.247707000000000     -0.072660000000000      0.877569000000000
H      -1.247707000000000      0.072660000000000     -0.877569000000000
H      -1.247707000000000      0.072660000000000      0.877569000000000
